* ENCODING=ISO-8859-1
NAME          ilog.cplex
ROWS
 N  obj     
 E  C1_0    
 E  C1_1    
 E  C1_2    
 E  C1_3    
 E  C1_4    
 E  C1_5    
 E  C1_6    
 E  C1_7    
 E  C1_8    
 E  C1_9    
 E  C1_10   
 E  C1_11   
 E  C1_12   
 E  C1_13   
 E  C1_14   
 E  C1_15   
 E  C1_16   
 E  C1_17   
 E  C1_18   
 E  C1_19   
 E  C1_20   
 E  C1_21   
 E  C1_22   
 E  C1_23   
 E  C1_24   
 E  C1_25   
 E  C1_26   
 E  C1_27   
 E  C1_28   
 E  C1_29   
 E  C1_30   
 E  C1_31   
 E  C1_32   
 E  C1_33   
 E  C1_34   
 E  C1_35   
 E  C1_36   
 E  C1_37   
 E  C1_38   
 E  C1_39   
 E  C1_40   
 E  C1_41   
 E  C1_42   
 E  C1_43   
 E  C1_44   
 E  C1_45   
 E  C1_46   
 E  C1_47   
 E  C1_48   
 E  C1_49   
 L  C2_0    
 L  C2_1    
 L  C2_2    
 L  C2_3    
 L  C2_4    
 L  C2_5    
 L  C2_6    
 L  C2_7    
 L  C2_8    
 L  C2_9    
 L  C2_10   
 L  C2_11   
 L  C2_12   
 L  C2_13   
 L  C2_14   
COLUMNS
    x_0       obj                         -3412
    x_0       C1_29                           1
    x_0       C1_37                           1
    x_0       C1_41                           1
    x_0       C2_0                            1
    x_1       obj                         -4674
    x_1       C1_16                           1
    x_1       C1_17                           1
    x_1       C1_27                           1
    x_1       C1_46                           1
    x_1       C2_1                            1
    x_2       obj                         -4643
    x_2       C1_8                            1
    x_2       C1_25                           1
    x_2       C1_30                           1
    x_2       C1_38                           1
    x_2       C2_2                            1
    x_3       obj                         -3332
    x_3       C1_0                            1
    x_3       C1_24                           1
    x_3       C1_45                           1
    x_3       C2_3                            1
    x_4       obj                         -3328
    x_4       C1_4                            1
    x_4       C1_31                           1
    x_4       C1_42                           1
    x_4       C2_4                            1
    x_5       obj                         -4249
    x_5       C1_9                            1
    x_5       C1_11                           1
    x_5       C1_34                           1
    x_5       C1_44                           1
    x_5       C2_5                            1
    x_6       obj                         -4523
    x_6       C1_3                            1
    x_6       C1_13                           1
    x_6       C1_20                           1
    x_6       C1_32                           1
    x_6       C2_6                            1
    x_7       obj                         -4466
    x_7       C1_14                           1
    x_7       C1_15                           1
    x_7       C1_18                           1
    x_7       C1_43                           1
    x_7       C2_7                            1
    x_8       obj                         -3236
    x_8       C1_2                            1
    x_8       C1_12                           1
    x_8       C1_23                           1
    x_8       C2_8                            1
    x_9       obj                         -4308
    x_9       C1_6                            1
    x_9       C1_22                           1
    x_9       C1_26                           1
    x_9       C1_48                           1
    x_9       C2_9                            1
    x_10      obj                         -3367
    x_10      C1_5                            1
    x_10      C1_35                           1
    x_10      C1_36                           1
    x_10      C2_10                           1
    x_11      obj                         -3529
    x_11      C1_21                           1
    x_11      C1_39                           1
    x_11      C1_40                           1
    x_11      C2_11                           1
    x_12      obj                         -2165
    x_12      C1_7                            1
    x_12      C1_47                           1
    x_12      C2_12                           1
    x_13      obj                         -3491
    x_13      C1_1                            1
    x_13      C1_19                           1
    x_13      C1_28                           1
    x_13      C2_13                           1
    x_14      obj                         -3434
    x_14      C1_10                           1
    x_14      C1_33                           1
    x_14      C1_49                           1
    x_14      C2_14                           1
RHS
    rhs       C1_0                            1
    rhs       C1_1                            1
    rhs       C1_2                            1
    rhs       C1_3                            1
    rhs       C1_4                            1
    rhs       C1_5                            1
    rhs       C1_6                            1
    rhs       C1_7                            1
    rhs       C1_8                            1
    rhs       C1_9                            1
    rhs       C1_10                           1
    rhs       C1_11                           1
    rhs       C1_12                           1
    rhs       C1_13                           1
    rhs       C1_14                           1
    rhs       C1_15                           1
    rhs       C1_16                           1
    rhs       C1_17                           1
    rhs       C1_18                           1
    rhs       C1_19                           1
    rhs       C1_20                           1
    rhs       C1_21                           1
    rhs       C1_22                           1
    rhs       C1_23                           1
    rhs       C1_24                           1
    rhs       C1_25                           1
    rhs       C1_26                           1
    rhs       C1_27                           1
    rhs       C1_28                           1
    rhs       C1_29                           1
    rhs       C1_30                           1
    rhs       C1_31                           1
    rhs       C1_32                           1
    rhs       C1_33                           1
    rhs       C1_34                           1
    rhs       C1_35                           1
    rhs       C1_36                           1
    rhs       C1_37                           1
    rhs       C1_38                           1
    rhs       C1_39                           1
    rhs       C1_40                           1
    rhs       C1_41                           1
    rhs       C1_42                           1
    rhs       C1_43                           1
    rhs       C1_44                           1
    rhs       C1_45                           1
    rhs       C1_46                           1
    rhs       C1_47                           1
    rhs       C1_48                           1
    rhs       C1_49                           1
    rhs       C2_0                            1
    rhs       C2_1                            1
    rhs       C2_2                            1
    rhs       C2_3                            1
    rhs       C2_4                            1
    rhs       C2_5                            1
    rhs       C2_6                            1
    rhs       C2_7                            1
    rhs       C2_8                            1
    rhs       C2_9                            1
    rhs       C2_10                           1
    rhs       C2_11                           1
    rhs       C2_12                           1
    rhs       C2_13                           1
    rhs       C2_14                           1
ENDATA
